WARNING: for repeatability, setting FPU to use double precision
============================[ Problem Statistics ]=============================
|                                                                             |
|  Number of variables:           100                                         |
|  Number of clauses:             449                                         |
|  Parse time:                   0.00 s                                       |
|  Eliminated clauses:           0.00 Mb                                      |
|  Simplification time:          0.00 s                                       |
|                                                                             |
============================[ Search Statistics ]==============================
| Conflicts |          ORIGINAL         |          LEARNT          | Progress |
|           |    Vars  Clauses Literals |    Limit  Clauses Lit/Cl |          |
===============================================================================
|       100 |      99      447     1350 |      163      100      7 |  0.010 % |
===============================================================================
restarts              : 2
conflicts             : 177            (61119 /sec)
decisions             : 236            (0.00 % random) (81492 /sec)
propagations          : 4122           (1423343 /sec)
conflict literals     : 1223           (14.77 % deleted)
Memory used           : 13.00 MB
CPU time              : 0.002896 s

SATISFIABLE
